NAME : random124.851.tour
COMMENT : Length = 851
COMMENT : Found by LKH [Keld Helsgaun] Mon Dec 30 21:17:03 2024
TYPE : TOUR
DIMENSION : 124
TOUR_SECTION
1
35
21
9
119
103
54
48
30
108
45
23
66
47
26
34
68
7
92
113
14
55
107
69
10
41
77
50
51
96
88
20
109
38
59
121
71
15
36
29
24
94
25
104
112
91
39
44
85
82
100
90
79
114
97
115
93
80
42
73
102
105
86
8
111
118
83
6
67
32
64
33
40
11
110
62
75
4
117
2
78
12
43
63
56
49
87
22
19
122
3
116
84
70
52
61
16
123
58
101
81
89
28
95
98
13
46
99
17
74
76
106
124
27
65
60
31
120
57
53
5
18
72
37
-1
EOF
